NAME : tsp_494_sol.txt
COMMENT : OR-Tools Guided Local Search
TYPE : TOUR
DIMENSION : 50
COST : 6079
STATUS : ROUTING_SUCCESS
GAP : 0.00% (Reference Solution)
TOUR_SECTION
1
38
12
49
48
25
42
41
9
5
27
6
34
43
40
39
44
19
7
26
30
35
11
31
21
32
13
4
10
3
45
28
37
46
18
36
23
47
8
15
2
16
22
17
33
24
29
14
50
20
-1
